coords = array2d(1..41, 1..2, [796, 327, 924, 465, 244, 778, 389, 92, 191, 910,
    268, 852, 287, 774, 614, 511, 104, 618, 492, 512, 111, 988, 970,
    994, 525, 286, 174, 595, 75, 820, 929, 235, 73, 241, 782, 10, 760,
    920, 463, 503, 594, 570, 738, 452, 788, 159, 117, 295, 501, 292,
    644, 266, 651, 882, 707, 510, 476, 703, 521, 510, 719, 409, 209,
    96, 464, 547, 519, 928, 144, 768, 164, 959, 333, 708, 479, 321,
    174, 65, 626, 893, 77, 968]);

n = 41;

